Welcome to the CBC MILP Solver 
Version: Trunk
Build Date: Apr 16 2020 

Starting solution of the Linear programming relaxation problem using Primal Simplex

Using Python-MIP package version 1.8.1
Machines:  4 Jobs:  4
Order: 
Job  0 : machine 0 ( 10 ) machine 3 ( 1 ) machine 2 ( 6 ) machine 1 ( 7 ) 
Job  1 : machine 0 ( 1 ) machine 3 ( 7 ) machine 1 ( 5 ) machine 2 ( 8 ) 
Job  2 : machine 3 ( 9 ) machine 2 ( 3 ) machine 1 ( 7 ) machine 0 ( 1 ) 
Job  3 : machine 1 ( 7 ) machine 3 ( 3 ) machine 0 ( 9 ) machine 2 ( 10 ) 
K:  44
Job  0 , e: machine  0 ( 0 ) machine  1 ( 17 ) machine  2 ( 11 ) machine  3 ( 10 ) 
Job  1 , e: machine  0 ( 0 ) machine  1 ( 8 ) machine  2 ( 13 ) machine  3 ( 1 ) 
Job  2 , e: machine  0 ( 19 ) machine  1 ( 12 ) machine  2 ( 9 ) machine  3 ( 0 ) 
Job  3 , e: machine  0 ( 10 ) machine  1 ( 0 ) machine  2 ( 19 ) machine  3 ( 7 ) 
Job  0 , f: machine  0 ( 14 ) machine  1 ( 0 ) machine  2 ( 7 ) machine  3 ( 13 ) 
Job  1 , f: machine  0 ( 20 ) machine  1 ( 8 ) machine  2 ( 0 ) machine  3 ( 13 ) 
Job  2 , f: machine  0 ( 0 ) machine  1 ( 1 ) machine  2 ( 8 ) machine  3 ( 11 ) 
Job  3 , f: machine  0 ( 10 ) machine  1 ( 22 ) machine  2 ( 0 ) machine  3 ( 19 ) 
EST and LST:
Job: 0 Machine: 0 EST: 0 LST: 20
Job: 0 Machine: 1 EST: 17 LST: 37
Job: 0 Machine: 2 EST: 11 LST: 31
Job: 0 Machine: 3 EST: 10 LST: 30
Job: 1 Machine: 0 EST: 0 LST: 23
Job: 1 Machine: 1 EST: 8 LST: 31
Job: 1 Machine: 2 EST: 13 LST: 36
Job: 1 Machine: 3 EST: 1 LST: 24
Job: 2 Machine: 0 EST: 19 LST: 43
Job: 2 Machine: 1 EST: 12 LST: 36
Job: 2 Machine: 2 EST: 9 LST: 33
Job: 2 Machine: 3 EST: 0 LST: 24
Job: 3 Machine: 0 EST: 10 LST: 25
Job: 3 Machine: 1 EST: 0 LST: 15
Job: 3 Machine: 2 EST: 19 LST: 34
Job: 3 Machine: 3 EST: 7 LST: 22
Order:
Job: 0 Machine: 0 = 0 
Job: 0 Machine: 1 = 3 
Job: 0 Machine: 2 = 2 
Job: 0 Machine: 3 = 1 
Job: 1 Machine: 0 = 0 
Job: 1 Machine: 1 = 2 
Job: 1 Machine: 2 = 3 
Job: 1 Machine: 3 = 1 
Job: 2 Machine: 0 = 3 
Job: 2 Machine: 1 = 2 
Job: 2 Machine: 2 = 1 
Job: 2 Machine: 3 = 0 
Job: 3 Machine: 0 = 2 
Job: 3 Machine: 1 = 0 
Job: 3 Machine: 2 = 3 
Job: 3 Machine: 3 = 1 
Distances:
Job 0, Machine 0 -> Machine 3: distance 10
Job 0, Machine 0 -> Machine 2: distance 11
Job 0, Machine 0 -> Machine 1: distance 17
Job 0, Machine 3 -> Machine 2: distance 1
Job 0, Machine 3 -> Machine 1: distance 7
Job 0, Machine 2 -> Machine 1: distance 6
Job 1, Machine 0 -> Machine 3: distance 1
Job 1, Machine 0 -> Machine 1: distance 8
Job 1, Machine 0 -> Machine 2: distance 13
Job 1, Machine 3 -> Machine 1: distance 7
Job 1, Machine 3 -> Machine 2: distance 12
Job 1, Machine 1 -> Machine 2: distance 5
Job 2, Machine 3 -> Machine 2: distance 9
Job 2, Machine 3 -> Machine 1: distance 12
Job 2, Machine 3 -> Machine 0: distance 19
Job 2, Machine 2 -> Machine 1: distance 3
Job 2, Machine 2 -> Machine 0: distance 10
Job 2, Machine 1 -> Machine 0: distance 7
Job 3, Machine 1 -> Machine 3: distance 7
Job 3, Machine 1 -> Machine 0: distance 10
Job 3, Machine 1 -> Machine 2: distance 19
Job 3, Machine 3 -> Machine 0: distance 3
Job 3, Machine 3 -> Machine 2: distance 12
Job 3, Machine 0 -> Machine 2: distance 9
McCormic linearization
19.0 13.0 7
14.0 13.0 7
19.0 19.0 10
10.0 7.0 7
7.0 1.0 9
[(0, 1), (1, 2), (3, 2), (0, 0), (2, 1), (1, 0)]
obj:  0.6000000000000001
solutions:  1
+ x(0,0) + 0.1x(1,0) 
C:  29.0
x(0,0) = 0.73	 x(0,1) = 22.00	 x(0,2) = 11.73	 x(0,3) = 10.73	 
x(1,0) = 2.73	 x(1,1) = 10.73	 x(1,2) = 15.73	 x(1,3) = 3.73	 
x(2,0) = 22.73	 x(2,1) = 15.73	 x(2,2) = 12.73	 x(2,3) = 3.73	 
x(3,0) = 10.00	 x(3,1) = 0.00	 x(3,2) = 19.00	 x(3,3) = 7.00	 
y(0,1,0) = 0.13	 y(1,0,0) = 0.87	 
y(0,2,0) = 0.64	 y(2,0,0) = 0.36	 
y(0,3,0) = 0.96	 y(3,0,0) = 0.04	 
y(1,2,0) = 0.48	 y(2,1,0) = 0.52	 
y(1,3,0) = 0.74	 y(3,1,0) = 0.26	 
y(2,3,0) = 0.00	 y(3,2,0) = 1.00	 
y(0,1,1) = 0.14	 y(1,0,1) = 0.86	 
y(0,2,1) = 0.03	 y(2,0,1) = 0.97	 
y(0,3,1) = 0.00	 y(3,0,1) = 1.00	 
y(1,2,1) = 0.34	 y(2,1,1) = 0.66	 
y(1,3,1) = 0.16	 y(3,1,1) = 0.84	 
y(2,3,1) = 0.00	 y(3,2,1) = 1.00	 
y(0,1,2) = 0.36	 y(1,0,2) = 0.64	 
y(0,2,2) = 0.39	 y(2,0,2) = 0.61	 
y(0,3,2) = 1.00	 y(3,0,2) = 0.00	 
y(1,2,2) = 0.00	 y(2,1,2) = 1.00	 
y(1,3,2) = 0.43	 y(3,1,2) = 0.57	 
y(2,3,2) = 0.85	 y(3,2,2) = 0.15	 
y(0,1,3) = 0.00	 y(1,0,3) = 1.00	 
y(0,2,3) = 0.09	 y(2,0,3) = 0.91	 
y(0,3,3) = 0.04	 y(3,0,3) = 0.96	 
y(1,2,3) = 0.28	 y(2,1,3) = 0.72	 
y(1,3,3) = 0.26	 y(3,1,3) = 0.74	 
y(2,3,3) = 0.25	 y(3,2,3) = 0.75	 
22.0 15.727272727272732 7
15.727272727272727 12.72727272727273 3
10.727272727272725 3.727272727272727 7
obj:  0.9174311926605506
solutions:  1
+ 0.09174311926605493x(0,0) + 0.08256880733944956x(3,0) + 0.009174311926605498x(1,0) 
[(0, 1), (0, 0), (3, 0), (2, 1), (1, 0), (0, 2)]
cliques:  1 mip: 97
C:  29.0
x(0,0) = 1.82	 x(0,1) = 22.00	 x(0,2) = 12.82	 x(0,3) = 11.82	 
x(1,0) = 0.82	 x(1,1) = 8.82	 x(1,2) = 13.82	 x(1,3) = 1.82	 
x(2,0) = 22.33	 x(2,1) = 15.33	 x(2,2) = 12.33	 x(2,3) = 3.33	 
x(3,0) = 10.00	 x(3,1) = 0.00	 x(3,2) = 19.00	 x(3,3) = 7.00	 
y(0,1,0) = 0.00	 y(1,0,0) = 1.00	 
y(0,2,0) = 0.68	 y(2,0,0) = 0.32	 
y(0,3,0) = 0.91	 y(3,0,0) = 0.09	 
y(1,2,0) = 0.51	 y(2,1,0) = 0.49	 
y(1,3,0) = 0.66	 y(3,1,0) = 0.34	 
y(2,3,0) = 0.00	 y(3,2,0) = 1.00	 
y(0,1,1) = 0.11	 y(1,0,1) = 0.89	 
y(0,2,1) = 0.01	 y(2,0,1) = 0.99	 
y(0,3,1) = 0.00	 y(3,0,1) = 1.00	 
y(1,2,1) = 0.39	 y(2,1,1) = 0.61	 
y(1,3,1) = 0.08	 y(3,1,1) = 0.92	 
y(2,3,1) = 0.00	 y(3,2,1) = 1.00	 
y(0,1,2) = 0.27	 y(1,0,2) = 0.73	 
y(0,2,2) = 0.29	 y(2,0,2) = 0.71	 
y(0,3,2) = 1.00	 y(3,0,2) = 0.00	 
y(1,2,2) = 0.51	 y(2,1,2) = 0.49	 
y(1,3,2) = 0.49	 y(3,1,2) = 0.51	 
y(2,3,2) = 0.83	 y(3,2,2) = 0.17	 
y(0,1,3) = 0.35	 y(1,0,3) = 0.65	 
y(0,2,3) = 0.02	 y(2,0,3) = 0.98	 
y(0,3,3) = 0.09	 y(3,0,3) = 0.91	 
y(1,2,3) = 0.33	 y(2,1,3) = 0.67	 
y(1,3,3) = 0.34	 y(3,1,3) = 0.66	 
y(2,3,3) = 0.27	 y(3,2,3) = 0.73	 
21.999999999999996 15.329809725158553 7
12.818181818181818 12.329809725158556 3
13.818181818181813 12.329809725158556 3
11.818181818181818 3.329809725158556 9
obj:  0.8853016142735766
solutions:  1
+ 0.046728971962616835x(1,2) + 0.018691588785046714x(0,2) 
[(0, 1), (1, 2), (0, 0), (3, 0), (2, 1), (0, 2)]
cliques:  1 mip: 131
C:  28.999999999999996
x(0,0) = 1.10	 x(0,1) = 22.00	 x(0,2) = 16.00	 x(0,3) = 15.00	 
x(1,0) = 8.00	 x(1,1) = 16.00	 x(1,2) = 21.00	 x(1,3) = 9.00	 
x(2,0) = 22.00	 x(2,1) = 15.00	 x(2,2) = 11.96	 x(2,3) = 2.96	 
x(3,0) = 10.00	 x(3,1) = 0.00	 x(3,2) = 19.00	 x(3,3) = 7.00	 
y(0,1,0) = 0.58	 y(1,0,0) = 0.42	 
y(0,2,0) = 0.67	 y(2,0,0) = 0.33	 
y(0,3,0) = 0.53	 y(3,0,0) = 0.47	 
y(1,2,0) = 0.34	 y(2,1,0) = 0.66	 
y(1,3,0) = 0.96	 y(3,1,0) = 0.04	 
y(2,3,0) = 0.00	 y(3,2,0) = 1.00	 
y(0,1,1) = 0.39	 y(1,0,1) = 0.61	 
y(0,2,1) = 0.00	 y(2,0,1) = 1.00	 
y(0,3,1) = 0.00	 y(3,0,1) = 1.00	 
y(1,2,1) = 0.17	 y(2,1,1) = 0.83	 
y(1,3,1) = 0.37	 y(3,1,1) = 0.63	 
y(2,3,1) = 0.00	 y(3,2,1) = 1.00	 
y(0,1,2) = 0.39	 y(1,0,2) = 0.61	 
y(0,2,2) = 0.05	 y(2,0,2) = 0.95	 
y(0,3,2) = 0.64	 y(3,0,2) = 0.36	 
y(1,2,2) = 0.34	 y(2,1,2) = 0.66	 
y(1,3,2) = 0.37	 y(3,1,2) = 0.63	 
y(2,3,2) = 0.82	 y(3,2,2) = 0.18	 
y(0,1,3) = 0.39	 y(1,0,3) = 0.61	 
y(0,2,3) = 0.14	 y(2,0,3) = 0.86	 
y(0,3,3) = 0.23	 y(3,0,3) = 0.77	 
y(1,2,3) = 0.09	 y(2,1,3) = 0.91	 
y(1,3,3) = 0.04	 y(3,1,3) = 0.96	 
y(2,3,3) = 0.28	 y(3,2,3) = 0.72	 
15.999999999999996 14.999999999999998 7
20.999999999999996 19.0 10
15.0 8.999999999999996 7
8.999999999999996 2.962982093663913 9
obj:  0.950251256281407
solutions:  1
+ 0.005025125628140693x(0,0) + 0.09045226130653265x(3,0) + 0.00502512562814071x(1,0) 
[(0, 0), (3, 0), (0, 2), (2, 1), (1, 0), (1, 1)]
cliques:  1 mip: 105
C:  29.356209150326794
x(0,0) = 5.04	 x(0,1) = 22.04	 x(0,2) = 16.04	 x(0,3) = 15.04	 
x(1,0) = 7.55	 x(1,1) = 15.55	 x(1,2) = 20.55	 x(1,3) = 8.55	 
x(2,0) = 28.36	 x(2,1) = 21.36	 x(2,2) = 12.20	 x(2,3) = 3.20	 
x(3,0) = 10.36	 x(3,1) = 0.00	 x(3,2) = 19.36	 x(3,3) = 7.00	 
y(0,1,0) = 0.58	 y(1,0,0) = 0.42	 
y(0,2,0) = 0.55	 y(2,0,0) = 0.45	 
y(0,3,0) = 0.76	 y(3,0,0) = 0.24	 
y(1,2,0) = 0.50	 y(2,1,0) = 0.50	 
y(1,3,0) = 0.96	 y(3,1,0) = 0.04	 
y(2,3,0) = 0.00	 y(3,2,0) = 1.00	 
y(0,1,1) = 0.18	 y(1,0,1) = 0.82	 
y(0,2,1) = 0.52	 y(2,0,1) = 0.48	 
y(0,3,1) = 0.00	 y(3,0,1) = 1.00	 
y(1,2,1) = 0.37	 y(2,1,1) = 0.63	 
y(1,3,1) = 0.43	 y(3,1,1) = 0.57	 
y(2,3,1) = 0.00	 y(3,2,1) = 1.00	 
y(0,1,2) = 0.94	 y(1,0,2) = 0.06	 
y(0,2,2) = 0.13	 y(2,0,2) = 0.87	 
y(0,3,2) = 0.84	 y(3,0,2) = 0.16	 
y(1,2,2) = 0.23	 y(2,1,2) = 0.77	 
y(1,3,2) = 0.36	 y(3,1,2) = 0.64	 
y(2,3,2) = 0.81	 y(3,2,2) = 0.19	 
y(0,1,3) = 0.40	 y(1,0,3) = 0.60	 
y(0,2,3) = 0.14	 y(2,0,3) = 0.86	 
y(0,3,3) = 0.62	 y(3,0,3) = 0.38	 
y(1,2,3) = 0.11	 y(2,1,3) = 0.89	 
y(1,3,3) = 0.64	 y(3,1,3) = 0.36	 
y(2,3,3) = 0.27	 y(3,2,3) = 0.73	 
22.03921568627459 21.3562091503268 7
20.549019607843125 19.356209150326805 10
15.039215686274593 8.54901960784315 7
8.54901960784315 3.1953960561496855 9
obj:  1.0000000000000002
erro
[(0, 1), (0, 0), (3, 0), (2, 1), (1, 0), (0, 2)]
cliques:  0 mip: 242
C:  30.000000000000007
x(0,0) = 4.86	 x(0,1) = 22.61	 x(0,2) = 16.61	 x(0,3) = 14.86	 
x(1,0) = 0.00	 x(1,1) = 15.60	 x(1,2) = 21.28	 x(1,3) = 3.47	 
x(2,0) = 29.00	 x(2,1) = 22.00	 x(2,2) = 12.53	 x(2,3) = 3.53	 
x(3,0) = 11.00	 x(3,1) = 0.00	 x(3,2) = 20.00	 x(3,3) = 7.00	 
y(0,1,0) = 0.29	 y(1,0,0) = 0.71	 
y(0,2,0) = 0.57	 y(2,0,0) = 0.43	 
y(0,3,0) = 0.73	 y(3,0,0) = 0.27	 
y(1,2,0) = 0.68	 y(2,1,0) = 0.32	 
y(1,3,0) = 0.61	 y(3,1,0) = 0.39	 
y(2,3,0) = 0.00	 y(3,2,0) = 1.00	 
y(0,1,1) = 0.12	 y(1,0,1) = 0.88	 
y(0,2,1) = 0.56	 y(2,0,1) = 0.44	 
y(0,3,1) = 0.00	 y(3,0,1) = 1.00	 
y(1,2,1) = 0.38	 y(2,1,1) = 0.62	 
y(1,3,1) = 0.43	 y(3,1,1) = 0.57	 
y(2,3,1) = 0.00	 y(3,2,1) = 1.00	 
y(0,1,2) = 0.94	 y(1,0,2) = 0.06	 
y(0,2,2) = 0.06	 y(2,0,2) = 0.94	 
y(0,3,2) = 0.67	 y(3,0,2) = 0.33	 
y(1,2,2) = 0.24	 y(2,1,2) = 0.76	 
y(1,3,2) = 0.28	 y(3,1,2) = 0.72	 
y(2,3,2) = 0.80	 y(3,2,2) = 0.20	 
y(0,1,3) = 0.00	 y(1,0,3) = 1.00	 
y(0,2,3) = 0.11	 y(2,0,3) = 0.89	 
y(0,3,3) = 0.54	 y(3,0,3) = 0.46	 
y(1,2,3) = 0.28	 y(2,1,3) = 0.72	 
y(1,3,3) = 0.86	 y(3,1,3) = 0.14	 
y(2,3,3) = 0.26	 y(3,2,3) = 0.74	 
22.610540088821345 22.000000000000004 7
21.278452622302048 20.000000000000004 10
obj:  1.0999999999999994
erro
[(0, 1), (1, 2), (0, 0), (3, 0), (2, 1), (0, 2)]
cliques:  0 mip: 197
C:  29.999999999999204
x(0,0) = 5.70	 x(0,1) = 22.70	 x(0,2) = 16.70	 x(0,3) = 15.70	 
x(1,0) = 7.60	 x(1,1) = 16.17	 x(1,2) = 21.17	 x(1,3) = 8.60	 
x(2,0) = 29.00	 x(2,1) = 22.00	 x(2,2) = 12.58	 x(2,3) = 2.01	 
x(3,0) = 11.00	 x(3,1) = 0.24	 x(3,2) = 20.00	 x(3,3) = 7.24	 
y(0,1,0) = 0.56	 y(1,0,0) = 0.44	 
y(0,2,0) = 0.55	 y(2,0,0) = 0.45	 
y(0,3,0) = 0.69	 y(3,0,0) = 0.31	 
y(1,2,0) = 0.75	 y(2,1,0) = 0.25	 
y(1,3,0) = 1.00	 y(3,1,0) = 0.00	 
y(2,3,0) = 0.00	 y(3,2,0) = 1.00	 
y(0,1,1) = 0.06	 y(1,0,1) = 0.94	 
y(0,2,1) = 0.41	 y(2,0,1) = 0.59	 
y(0,3,1) = 0.00	 y(3,0,1) = 1.00	 
y(1,2,1) = 0.37	 y(2,1,1) = 0.63	 
y(1,3,1) = 0.42	 y(3,1,1) = 0.58	 
y(2,3,1) = 0.00	 y(3,2,1) = 1.00	 
y(0,1,2) = 0.94	 y(1,0,2) = 0.06	 
y(0,2,2) = 0.06	 y(2,0,2) = 0.94	 
y(0,3,2) = 0.72	 y(3,0,2) = 0.28	 
y(1,2,2) = 0.23	 y(2,1,2) = 0.77	 
y(1,3,2) = 0.50	 y(3,1,2) = 0.50	 
y(2,3,2) = 0.80	 y(3,2,2) = 0.20	 
y(0,1,3) = 0.06	 y(1,0,3) = 0.94	 
y(0,2,3) = 0.22	 y(2,0,3) = 0.78	 
y(0,3,3) = 0.61	 y(3,0,3) = 0.39	 
y(1,2,3) = 0.08	 y(2,1,3) = 0.92	 
y(1,3,3) = 0.65	 y(3,1,3) = 0.35	 
y(2,3,3) = 0.33	 y(3,2,3) = 0.67	 
22.70303809294982 21.999999999999197 7
21.169136799239386 19.999999999999194 10
8.600846902596615 2.010741258852831 9
obj:  1.061828567816889
erro
[(0, 1), (0, 0), (3, 0), (2, 1), (1, 0), (0, 2)]
cliques:  0 mip: 215
C:  30.000000000000007
x(0,0) = 1.00	 x(0,1) = 20.44	 x(0,2) = 14.44	 x(0,3) = 13.44	 
x(1,0) = 6.19	 x(1,1) = 14.19	 x(1,2) = 19.90	 x(1,3) = 7.19	 
x(2,0) = 26.19	 x(2,1) = 19.19	 x(2,2) = 11.55	 x(2,3) = 2.55	 
x(3,0) = 11.00	 x(3,1) = 0.44	 x(3,2) = 20.00	 x(3,3) = 7.44	 
y(0,1,0) = 0.35	 y(1,0,0) = 0.65	 
y(0,2,0) = 0.71	 y(2,0,0) = 0.29	 
y(0,3,0) = 0.95	 y(3,0,0) = 0.05	 
y(1,2,0) = 0.70	 y(2,1,0) = 0.30	 
y(1,3,0) = 1.00	 y(3,1,0) = 0.00	 
y(2,3,0) = 0.00	 y(3,2,0) = 1.00	 
y(0,1,1) = 0.05	 y(1,0,1) = 0.95	 
y(0,2,1) = 0.30	 y(2,0,1) = 0.70	 
y(0,3,1) = 0.00	 y(3,0,1) = 1.00	 
y(1,2,1) = 1.00	 y(2,1,1) = 0.00	 
y(1,3,1) = 0.48	 y(3,1,1) = 0.52	 
y(2,3,1) = 0.00	 y(3,2,1) = 1.00	 
y(0,1,2) = 0.84	 y(1,0,2) = 0.16	 
y(0,2,2) = 0.15	 y(2,0,2) = 0.85	 
y(0,3,2) = 0.82	 y(3,0,2) = 0.18	 
y(1,2,2) = 0.22	 y(2,1,2) = 0.78	 
y(1,3,2) = 0.64	 y(3,1,2) = 0.36	 
y(2,3,2) = 0.75	 y(3,2,2) = 0.25	 
y(0,1,3) = 0.13	 y(1,0,3) = 0.87	 
y(0,2,3) = 0.09	 y(2,0,3) = 0.91	 
y(0,3,3) = 0.22	 y(3,0,3) = 0.78	 
y(1,2,3) = 0.14	 y(2,1,3) = 0.86	 
y(1,3,3) = 0.72	 y(3,1,3) = 0.28	 
y(2,3,3) = 0.32	 y(3,2,3) = 0.68	 
20.442052540696736 19.187666874451256 7
14.442052540696736 11.548183905215863 3
13.442052540696736 7.187666874451266 7
7.187666874451266 2.5481839052158626 9
obj:  1.125714143798664
erro
[(0, 1), (1, 2), (0, 0), (2, 1), (1, 0), (0, 2)]
cliques:  0 mip: 0
iterações: 7 cortes cliques encontrados: 4 mip: 1033 objective:  30.000000000000007
Coin0506I Presolve 157 (-171) rows, 90 (-71) columns and 490 (-260) elements
Clp1000I sum of infeasibilities 1.79124e-08 - average 1.14092e-10, 0 fixed columns
Coin0506I Presolve 157 (0) rows, 90 (0) columns and 490 (0) elements
Clp0029I End of values pass after 90 iterations
Clp0000I Optimal - objective value 29
Clp0000I Optimal - objective value 29
Coin0511I After Postsolve, objective 29, infeasibilities - dual 0 (0), primal 0 (0)
Clp0000I Optimal - objective value 29
Clp0000I Optimal - objective value 29
Clp0000I Optimal - objective value 29
Coin0511I After Postsolve, objective 29, infeasibilities - dual 0 (0), primal 0 (0)
Clp0032I Optimal objective 29 - 0 iterations time 0.012, Presolve 0.00, Idiot 0.01
Coin3009W Conflict graph built in 0.000 seconds, density: 0.071%
